Li24 Zr4 Mn4 Al6 Fe2 O40
1.0
   9.6080175335103455    0.0000000000000000   -3.4219081421743049
   0.0001525826303243   14.6863369936303538    0.0004047370734342
   0.0000000000000000    0.0000000000000000    5.1220650000000001
Li Mn Zr Al Fe Zr Mn Al Mn Zr Fe Al O
24 1 2 1 1 1 2 4 1 1 1 1 40
direct
   0.9996969999999999    0.2376980000000000    0.9991260000000000 Li
   0.2413920000000000    0.2301800000000000    0.4826870000000000 Li
   0.9997360000000000    0.3347400000000000    0.4998210000000000 Li
   0.0000470000000000    0.1403360000000000    0.4988940000000000 Li
   0.2418230000000000    0.0444000000000000    0.4811500000000000 Li
   0.2479520000000000    0.4394910000000000    0.4943420000000000 Li
   0.7582090000000000    0.2299970000000000    0.5160600000000000 Li
   0.4997790000000000    0.3407080000000000    0.4996250000000000 Li
   0.4995900000000000    0.1291990000000000    0.4993150000000000 Li
   0.7576920000000000    0.0443290000000000    0.5177230000000000 Li
   0.7515590000000000    0.4395930000000000    0.5049580000000000 Li
   0.0002550000000000    0.8385880000000000    0.0004310000000000 Li
   0.2493970000000000    0.5365780000000000    0.0031840000000000 Li
   0.0001640000000000    0.5368990000000000    0.5002030000000000 Li
   0.2410780000000000    0.8404470000000001    0.4936160000000000 Li
   0.9999090000000000    0.9440499999999999    0.4997480000000000 Li
   0.0002520000000000    0.7410480000000000    0.5004340000000000 Li
   0.2449530000000000    0.6320470000000000    0.5018770000000000 Li
   0.7508560000000000    0.5365380000000000    0.9972490000000001 Li
   0.5001420000000000    0.5379550000000000    0.5004220000000000 Li
   0.7592800000000000    0.8402820000000000    0.5071310000000000 Li
   0.5004050000000000    0.9182580000000000    0.5006790000000000 Li
   0.5002110000000000    0.7318840000000000    0.5005160000000000 Li
   0.7556690000000000    0.6320850000000000    0.4991990000000000 Li
   0.2422330000000000    0.1399250000000000    0.9824810000000000 Mn
   0.7541610000000000    0.3404990000000000    0.0031080000000000 Zr
   0.2450970000000000    0.9343410000000000    0.0003480000000000 Zr
   0.9998840000000000    0.0393080000000000    0.9995320000000000 Al
   0.9998660000000000    0.4381860000000000    0.9996500000000000 Fe
   0.2454830000000000    0.3405310000000000    0.9959430000000000 Zr
   0.4999490000000000    0.0362670000000000    0.9996150000000000 Mn
   0.4998850000000000    0.4398310000000000    0.9997650000000000 Mn
   0.7573210000000000    0.1398630000000000    0.0162710000000000 Al
   0.0001840000000000    0.6351420000000000    0.0003410000000000 Al
   0.2478950000000000    0.7327310000000000    0.0116310000000000 Al
   0.5002770000000000    0.6322620000000000    0.0005510000000000 Al
   0.7551130000000000    0.9342890000000000    0.9997890000000000 Mn
   0.7526450000000000    0.7327390000000000    0.9894970000000000 Zr
   0.4998190000000000    0.2369250000000000    0.9993690000000000 Fe
   0.5001970000000000    0.8309690000000000    0.0004790000000000 Al
   0.3533210000000000    0.2400840000000000    0.2212920000000000 O
   0.1382230000000000    0.2425670000000000    0.7655510000000000 O
   0.1251900000000000    0.1364360000000000    0.2075380000000000 O
   0.3721940000000000    0.3497860000000000    0.7753870000000000 O
   0.3628590000000000    0.1394850000000000    0.7552200000000000 O
   0.1269820000000000    0.3474700000000000    0.2189290000000000 O
   0.3766640000000000    0.4305880000000000    0.2203370000000000 O
   0.1305380000000000    0.0490350000000000    0.7434050000000000 O
   0.1214170000000000    0.4313350000000000    0.7756570000000000 O
   0.3560690000000000    0.0416110000000000    0.2170890000000000 O
   0.8614309999999999    0.2424960000000000    0.2332810000000000 O
   0.6463570000000000    0.2400750000000000    0.7774710000000000 O
   0.6367820000000000    0.1394910000000000    0.2437270000000000 O
   0.8726429999999999    0.3475800000000000    0.7799760000000000 O
   0.8743250000000000    0.1363250000000000    0.7912590000000000 O
   0.6274729999999999    0.3496620000000000    0.2236220000000000 O
   0.8783330000000000    0.4312470000000000    0.2235250000000000 O
   0.6435940000000000    0.0415210000000000    0.7817260000000000 O
   0.6230360000000000    0.4306180000000000    0.7790100000000000 O
   0.8690480000000000    0.0489770000000000    0.2553870000000000 O
   0.1077850000000000    0.5365770000000000    0.2282780000000000 O
   0.3910880000000000    0.5369410000000000    0.7709020000000000 O
   0.3653460000000000    0.8229500000000000    0.2539490000000000 O
   0.1395330000000000    0.8304830000000000    0.7822480000000001 O
   0.1275780000000000    0.7246980000000000    0.2278670000000000 O
   0.3755520000000000    0.9228340000000000    0.7807460000000001 O
   0.3768210000000000    0.7292080000000000    0.7913710000000000 O
   0.1235520000000000    0.9428360000000000    0.2210760000000000 O
   0.1232330000000000    0.6425170000000000    0.7805510000000000 O
   0.3775730000000000    0.6384310000000000    0.2218970000000000 O
   0.6090980000000000    0.5367050000000000    0.2295490000000000 O
   0.8922930000000000    0.5367340000000000    0.7717180000000000 O
   0.8610300000000000    0.8304380000000000    0.2187390000000000 O
   0.6351580000000000    0.8229160000000000    0.7469440000000001 O
   0.6238990000000000    0.7291570000000001    0.2100690000000000 O
   0.8764120000000000    0.9426960000000000    0.7788650000000000 O
   0.8730340000000000    0.7247990000000000    0.7731900000000000 O
   0.6247880000000000    0.9228780000000000    0.2195500000000000 O
   0.6229560000000000    0.6384330000000000    0.7792480000000001 O
   0.8772780000000000    0.6424299999999999    0.2203500000000000 O
